certificates/rado_a11_c234_N25.cnf
c Rad2 upper bound instance: x1 + 11*x2 - x3 = 234, interval [1,25]
p cnf 25 112
1 9 22 0
-1 -9 -22 0
1 20 23 0
-1 -20 -23 0
2 10 22 0
-2 -10 -22 0
2 21 23 0
-2 -21 -23 0
3 11 22 0
-3 -11 -22 0
3 22 23 0
-3 -22 -23 0
1 4 21 0
-1 -4 -21 0
4 12 22 0
-4 -12 -22 0
4 23 0
-4 -23 0
2 5 21 0
-2 -5 -21 0
5 13 22 0
-5 -13 -22 0
5 23 24 0
-5 -23 -24 0
3 6 21 0
-3 -6 -21 0
6 14 22 0
-6 -14 -22 0
6 23 25 0
-6 -23 -25 0
4 7 21 0
-4 -7 -21 0
7 15 22 0
-7 -15 -22 0
5 8 21 0
-5 -8 -21 0
8 16 22 0
-8 -16 -22 0
6 9 21 0
-6 -9 -21 0
9 17 22 0
-9 -17 -22 0
7 10 21 0
-7 -10 -21 0
10 18 22 0
-10 -18 -22 0
8 11 21 0
-8 -11 -21 0
11 19 22 0
-11 -19 -22 0
9 12 21 0
-9 -12 -21 0
12 20 22 0
-12 -20 -22 0
10 13 21 0
-10 -13 -21 0
13 21 22 0
-13 -21 -22 0
11 14 21 0
-11 -14 -21 0
14 22 0
-14 -22 0
1 15 20 0
-1 -15 -20 0
12 15 21 0
-12 -15 -21 0
15 22 23 0
-15 -22 -23 0
2 16 20 0
-2 -16 -20 0
13 16 21 0
-13 -16 -21 0
16 22 24 0
-16 -22 -24 0
3 17 20 0
-3 -17 -20 0
14 17 21 0
-14 -17 -21 0
17 22 25 0
-17 -22 -25 0
4 18 20 0
-4 -18 -20 0
15 18 21 0
-15 -18 -21 0
5 19 20 0
-5 -19 -20 0
16 19 21 0
-16 -19 -21 0
6 20 0
-6 -20 0
17 20 21 0
-17 -20 -21 0
7 20 21 0
-7 -20 -21 0
18 21 0
-18 -21 0
8 20 22 0
-8 -20 -22 0
19 21 22 0
-19 -21 -22 0
9 20 23 0
-9 -20 -23 0
20 21 23 0
-20 -21 -23 0
10 20 24 0
-10 -20 -24 0
21 24 0
-21 -24 0
11 20 25 0
-11 -20 -25 0
21 22 25 0
-21 -22 -25 0
