certificates/rado_a11_c234_N25.drat
-23 21 -25 0
21 -25 0
d -23 21 -25 0
-25 0
23 -21 0
-21 0
18 0
24 0
22 0
-14 0
-16 0
-10 0
11 0
17 0
13 0
19 0
7 0
-3 0
0
